SDVRP instances/custom_instances/p02_13_splitx10_0.vrp
NAME:p02_13_splitx10_
BEST_KNOWN: 0
COMMENT: 0
DIMENSION: 330
CAPACITY: 1400
EDGE_WEIGHT_FORMAT: FUNCTION
EDGE_WEIGHT_TYPE: EXACT_2D
NODE_COORD_SECTION
1 0.00000 0.00000
2 -9 35
3 -9 35
4 -9 35
5 -9 35
6 20 8
7 20 8
8 20 8
9 20 8
10 20 8
11 20 8
12 20 8
13 34 48
14 34 48
15 34 48
16 34 48
17 34 48
18 -46 34
19 -46 34
20 -46 34
21 10 -47
22 10 -47
23 10 -47
24 10 -47
25 35 -22
26 35 -22
27 35 -22
28 45 -40
29 45 -40
30 45 -40
31 -41 46
32 -41 46
33 -41 46
34 -41 46
35 -41 46
36 -18 17
37 -18 17
38 -18 17
39 -18 17
40 -18 17
41 -15 8
42 -15 8
43 39 -33
44 39 -33
45 39 -33
46 39 -33
47 -10 -34
48 -10 -34
49 -10 -34
50 -10 -34
51 24 7
52 24 7
53 24 7
54 1 -22
55 1 -22
56 1 -22
57 1 -22
58 1 -22
59 1 -22
60 50 -8
61 50 -8
62 50 -8
63 50 -8
64 32 -26
65 32 -26
66 32 -26
67 11 -25
68 11 -25
69 47 -16
70 47 -16
71 47 -16
72 6 -17
73 6 -17
74 6 -17
75 6 -17
76 6 -17
77 6 -17
78 5 50
79 5 50
80 5 50
81 5 50
82 5 50
83 5 50
84 5 50
85 -15 -12
86 -4 7
87 -4 7
88 -4 7
89 -4 7
90 -31 15
91 -31 15
92 -31 15
93 -31 15
94 -31 15
95 22 15
96 22 15
97 22 15
98 22 15
99 22 15
100 22 15
101 -48 5
102 -48 5
103 -48 5
104 -48 5
105 30 -10
106 30 -10
107 30 -10
108 30 -10
109 30 -10
110 -37 -1
111 -37 -1
112 -37 -1
113 47 -15
114 47 -15
115 47 -15
116 47 -15
117 47 -15
118 50 8
119 50 8
120 50 8
121 -14 -5
122 -14 -5
123 -14 -5
124 -14 -5
125 28 15
126 28 15
127 28 15
128 28 15
129 -10 35
130 -10 35
131 -10 35
132 -10 35
133 -10 35
134 -10 -32
135 -10 -32
136 -10 -32
137 -26 30
138 -26 30
139 -24 32
140 -24 32
141 -36 24
142 -36 24
143 -36 24
144 -36 24
145 -36 24
146 -36 24
147 -36 24
148 24 -17
149 24 -17
150 31 -1
151 31 -1
152 31 -1
153 31 -1
154 31 -1
155 31 -1
156 -18 -15
157 -18 -15
158 -18 -15
159 -18 -15
160 -18 -15
161 -25 24
162 -25 24
163 -26 -23
164 -26 -23
165 -26 -23
166 -26 -23
167 -26 -23
168 -1 0
169 -1 0
170 -1 0
171 -1 0
172 -1 0
173 -1 0
174 -49 -18
175 -49 -18
176 -49 -18
177 -49 -18
178 -49 -18
179 -47 -12
180 -47 -12
181 -2 -33
182 -2 -33
183 -2 -33
184 -2 -33
185 -2 -33
186 -2 -33
187 28 40
188 28 40
189 28 40
190 28 40
191 28 40
192 28 40
193 28 40
194 -40 -14
195 -40 -14
196 -42 19
197 -42 19
198 -42 19
199 -42 19
200 -42 19
201 7 -16
202 7 -16
203 -19 9
204 -27 -4
205 -27 -4
206 -27 -4
207 -27 -4
208 -27 -4
209 -8 29
210 -8 29
211 -8 29
212 -8 29
213 -8 29
214 -8 29
215 -8 29
216 21 16
217 21 16
218 21 16
219 21 16
220 21 16
221 21 16
222 41 -34
223 41 -34
224 41 -34
225 41 -34
226 41 -34
227 36 -47
228 36 -47
229 36 -47
230 -21 -21
231 -21 -21
232 -21 -21
233 -21 -21
234 6 23
235 6 23
236 6 23
237 6 23
238 6 23
239 6 23
240 6 23
241 -8 24
242 -8 24
243 -8 24
244 -8 24
245 -8 24
246 -31 32
247 -31 32
248 -31 32
249 -31 32
250 -34 25
251 -34 25
252 -34 25
253 -34 25
254 -34 25
255 32 -19
256 32 -19
257 32 -19
258 32 -19
259 -31 -37
260 -31 -37
261 -31 -37
262 -31 -37
263 -31 -37
264 -13 -45
265 -13 -45
266 -13 -45
267 -13 -45
268 -12 -9
269 -12 -9
270 -12 -9
271 -12 -9
272 -12 -9
273 -12 -9
274 2 21
275 2 21
276 -11 -40
277 -11 -40
278 -11 -40
279 -11 -40
280 -11 -40
281 -11 -40
282 -47 3
283 -47 3
284 -47 3
285 -47 3
286 -47 3
287 -47 3
288 -8 -46
289 -8 -46
290 -8 -46
291 -4 30
292 -4 30
293 -4 30
294 -4 30
295 -4 30
296 -4 30
297 -4 30
298 -4 30
299 -27 18
300 -27 18
301 -27 18
302 -27 18
303 -27 18
304 -27 18
305 -27 18
306 -27 18
307 37 -9
308 37 -9
309 37 -9
310 37 -9
311 -36 -25
312 -36 -25
313 -36 -25
314 -36 -25
315 -36 -25
316 -36 -25
317 40 42
318 40 42
319 40 42
320 40 42
321 -2 -28
322 -2 -28
323 -2 -28
324 -2 -28
325 -2 -28
326 -2 -28
327 -1 -24
328 -1 -24
329 -1 -24
330 -1 -24
DEMAND_SECTION
1 0
2 280
3 140
4 14
5 6
6 280
7 280
8 70
9 14
10 14
11 14
12 8
13 280
14 140
15 70
16 14
17 6
18 280
19 280
20 140
21 280
22 70
23 14
24 6
25 280
26 14
27 6
28 280
29 280
30 70
31 280
32 140
33 70
34 14
35 6
36 280
37 140
38 70
39 14
40 6
41 280
42 70
43 140
44 14
45 14
46 12
47 280
48 280
49 70
50 10
51 280
52 280
53 70
54 280
55 280
56 70
57 14
58 14
59 2
60 140
61 14
62 14
63 12
64 280
65 280
66 70
67 280
68 70
69 280
70 70
71 10
72 280
73 140
74 14
75 14
76 14
77 8
78 280
79 140
80 70
81 14
82 14
83 14
84 8
85 280
86 140
87 70
88 14
89 6
90 280
91 280
92 14
93 14
94 12
95 140
96 70
97 14
98 14
99 14
100 8
101 140
102 14
103 14
104 2
105 140
106 70
107 14
108 14
109 12
110 280
111 14
112 6
113 280
114 280
115 14
116 14
117 2
118 280
119 140
120 70
121 140
122 14
123 14
124 12
125 280
126 14
127 14
128 12
129 280
130 140
131 14
132 14
133 12
134 280
135 70
136 10
137 140
138 70
139 280
140 140
141 280
142 140
143 14
144 14
145 14
146 14
147 4
148 280
149 70
150 280
151 280
152 70
153 14
154 14
155 2
156 280
157 140
158 70
159 14
160 6
161 280
162 280
163 280
164 140
165 70
166 14
167 6
168 140
169 14
170 14
171 14
172 14
173 4
174 280
175 70
176 14
177 14
178 2
179 280
180 10
181 140
182 70
183 14
184 14
185 14
186 8
187 280
188 140
189 14
190 14
191 14
192 14
193 4
194 280
195 70
196 140
197 70
198 14
199 14
200 2
201 280
202 10
203 280
204 140
205 70
206 14
207 14
208 12
209 280
210 280
211 14
212 14
213 14
214 14
215 4
216 280
217 280
218 70
219 14
220 14
221 12
222 140
223 14
224 14
225 14
226 8
227 280
228 280
229 140
230 280
231 70
232 14
233 6
234 140
235 70
236 14
237 14
238 14
239 14
240 4
241 140
242 14
243 14
244 14
245 8
246 280
247 70
248 14
249 6
250 280
251 70
252 14
253 14
254 12
255 280
256 70
257 14
258 6
259 280
260 140
261 70
262 14
263 6
264 140
265 14
266 14
267 12
268 280
269 280
270 70
271 14
272 14
273 2
274 280
275 140
276 280
277 14
278 14
279 14
280 14
281 4
282 280
283 140
284 14
285 14
286 14
287 8
288 280
289 140
290 10
291 280
292 140
293 70
294 14
295 14
296 14
297 14
298 4
299 280
300 140
301 70
302 14
303 14
304 14
305 14
306 4
307 280
308 280
309 70
310 10
311 280
312 280
313 70
314 14
315 14
316 2
317 280
318 70
319 14
320 6
321 140
322 70
323 14
324 14
325 14
326 8
327 280
328 140
329 70
330 10
DEPOT_SECTION
1
-1
EOF