SDVRP instances/custom_instances/p02_13_splitx10_0.sol
329 -8 11 10 6 7 5 9 52 50 51 -21 22 23 20 289 287 288 263 264 266 265 276 279 275 277 278 280 -26 24 25 223 225 222 224 221 45 44 42 43 63 65 64 -29 27 28 227 228 226 -30 31 34 33 32 18 17 19 300 305 301 304 -37 38 39 36 35 160 161 40 -41 202 90 92 91 89 93 298 299 303 302 -53 58 57 54 55 56 323 320 329 326 328 327 -61 59 60 62 113 112 115 114 116 69 68 70 108 105 104 107 106 -74 73 75 72 71 76 67 66 200 201 -79 83 82 77 80 81 78 4 1 2 3 291 290 -86 88 87 85 273 274 239 235 236 238 234 237 233 -118 119 117 152 154 153 149 150 151 -122 123 193 194 173 175 174 177 176 179 178 109 111 110 205 207 206 -125 126 127 124 97 98 96 94 95 99 219 220 218 215 217 216 -134 135 133 46 48 49 47 184 180 185 181 182 183 322 324 321 325 -139 138 137 136 246 245 247 248 251 249 250 253 252 -144 146 145 140 141 142 143 199 195 197 196 198 100 101 103 102 284 285 282 281 286 283 -148 147 256 255 254 257 309 307 308 306 -158 156 155 159 157 164 163 165 166 162 232 229 230 231 -169 168 167 171 170 172 121 120 84 270 268 271 272 269 267 -190 192 187 191 189 186 188 12 15 16 13 14 317 316 318 319 -204 203 315 310 314 313 312 311 259 258 262 260 261 -241 242 243 240 244 210 208 212 211 209 213 214 132 128 129 131 130 294 296 297 292 293 295 0 





OBJ=
2141.415
BEST_KNOWN=
0.000